00011100000101111101001101011110111111011100111011001000101100110111101011001110111001010101010111001100011111001010010011101100001100000101010110111110110000111101110111111001111110111011101000000100000110001110011010111010111101101110101101111111001010010000100010001010000100101100001101001100000000010011000100110101101000011010000111001110101011100011000111011000100101100000110001000001111100100010011100011111011010001110111111100000101000100000000100000000000110001111011001110000110101010111010011000001101010011110100110000011110011101101011011110000000101000010000010010111000010110010101011000001101101000000111010111001100100100000000000101110001110011100001110000111001001000000010101111010